(set-logic QF_LRA)
(declare-fun fluent_robot_at_r0_p0@0 () Bool)
(declare-fun fluent_robot_at_r0_p1@0 () Bool)
(declare-fun fluent_robot_free_r0@0 () Bool)
(declare-fun act_unload_at_depot@1 () Bool)
(declare-fun parameter_unload_at_depot_pos@1 () Real)
(declare-fun fluent_pallet_at_plt0_p0@0 () Bool)
(declare-fun fluent_pallet_at_plt1_p0@0 () Bool)
(declare-fun fluent_pallet_at_plt0_p1@0 () Bool)
(declare-fun parameter_unload_at_depot_r@1 () Real)
(declare-fun fluent_pallet_at_plt1_p1@0 () Bool)
(declare-fun parameter_unload_at_depot_pallet@1 () Real)
(declare-fun fluent_battery_level_r0@0 () Real)
(declare-fun fluent_position_free_p0@0 () Bool)
(declare-fun fluent_position_free_p1@0 () Bool)
(declare-fun fluent_robot_has_r0_plt0@0 () Bool)
(declare-fun fluent_robot_has_r0_plt1@0 () Bool)
(declare-fun dur_make_treatment@1 () Real)
(declare-fun fluent_ready_plt0_p0_t0@0 () Bool)
(declare-fun fluent_ready_plt1_p0_t0@0 () Bool)
(declare-fun fluent_ready_plt0_p1_t0@0 () Bool)
(declare-fun fluent_ready_plt1_p1_t0@0 () Bool)
(declare-fun fluent_ready_plt0_p0_t1@0 () Bool)
(declare-fun fluent_ready_plt1_p0_t1@0 () Bool)
(declare-fun fluent_ready_plt0_p1_t1@0 () Bool)
(declare-fun fluent_ready_plt1_p1_t1@0 () Bool)
(declare-fun fluent_ready_plt0_p0_t2@0 () Bool)
(declare-fun fluent_ready_plt1_p0_t2@0 () Bool)
(declare-fun fluent_ready_plt0_p1_t2@0 () Bool)
(declare-fun fluent_ready_plt1_p1_t2@0 () Bool)
(declare-fun t@1 () Real)
(declare-fun parameter_make_treatment_t@1 () Real)
(declare-fun parameter_make_treatment_pallet@1 () Real)
(declare-fun fluent_treated_plt0_t0@0 () Bool)
(declare-fun fluent_treated_plt1_t0@0 () Bool)
(declare-fun fluent_treated_plt0_t1@0 () Bool)
(declare-fun fluent_treated_plt1_t1@0 () Bool)
(declare-fun fluent_treated_plt0_t2@0 () Bool)
(declare-fun fluent_treated_plt1_t2@0 () Bool)
(declare-fun parameter_make_treatment_r@1 () Real)
(declare-fun parameter_make_treatment_pos@1 () Real)
(declare-fun act_move@1 () Bool)
(declare-fun parameter_move_topos@1 () Real)
(declare-fun parameter_move_frompos@1 () Real)
(declare-fun parameter_move_r@1 () Real)
(declare-fun fluent_robot_at_r0_p0@1 () Bool)
(declare-fun fluent_robot_at_r0_p1@1 () Bool)
(declare-fun fluent_battery_level_r0@1 () Real)
(declare-fun act_load@1 () Bool)
(declare-fun parameter_load_t@1 () Real)
(declare-fun parameter_load_pos@1 () Real)
(declare-fun parameter_load_pallet@1 () Real)
(declare-fun act_make_treatment@1 () Bool)
(declare-fun parameter_load_r@1 () Real)
(declare-fun fluent_robot_free_r0@1 () Bool)
(declare-fun fluent_ready_plt0_p0_t0@1 () Bool)
(declare-fun fluent_ready_plt1_p0_t0@1 () Bool)
(declare-fun fluent_ready_plt0_p1_t0@1 () Bool)
(declare-fun fluent_ready_plt1_p1_t0@1 () Bool)
(declare-fun fluent_ready_plt0_p0_t1@1 () Bool)
(declare-fun fluent_ready_plt1_p0_t1@1 () Bool)
(declare-fun fluent_ready_plt0_p1_t1@1 () Bool)
(declare-fun fluent_ready_plt1_p1_t1@1 () Bool)
(declare-fun fluent_ready_plt0_p0_t2@1 () Bool)
(declare-fun fluent_ready_plt1_p0_t2@1 () Bool)
(declare-fun fluent_ready_plt0_p1_t2@1 () Bool)
(declare-fun fluent_ready_plt1_p1_t2@1 () Bool)
(declare-fun fluent_pallet_at_plt0_p0@1 () Bool)
(declare-fun fluent_pallet_at_plt1_p0@1 () Bool)
(declare-fun fluent_pallet_at_plt0_p1@1 () Bool)
(declare-fun fluent_pallet_at_plt1_p1@1 () Bool)
(declare-fun fluent_robot_has_r0_plt0@1 () Bool)
(declare-fun fluent_robot_has_r0_plt1@1 () Bool)
(declare-fun fluent_treated_plt0_t0@1 () Bool)
(declare-fun fluent_treated_plt1_t0@1 () Bool)
(declare-fun fluent_treated_plt0_t1@1 () Bool)
(declare-fun fluent_treated_plt1_t1@1 () Bool)
(declare-fun fluent_treated_plt0_t2@1 () Bool)
(declare-fun fluent_treated_plt1_t2@1 () Bool)
(declare-fun fluent_position_free_p0@1 () Bool)
(declare-fun fluent_position_free_p1@1 () Bool)
(declare-fun act_load_at_depot@1 () Bool)
(declare-fun parameter_load_at_depot_pos@1 () Real)
(declare-fun parameter_load_at_depot_r@1 () Real)
(declare-fun parameter_load_at_depot_pallet@1 () Real)
(assert (let ((.def_0 (= parameter_load_t@1 7.0))) (let ((.def_1 (= parameter_load_t@1 6.0))) (let ((.def_2 (= parameter_load_t@1 5.0))) (let ((.def_3 (or .def_2 .def_1 .def_0))) (let ((.def_4 (= parameter_load_at_depot_pallet@1 4.0))) (let ((.def_5 (= parameter_load_at_depot_pallet@1 3.0))) (let ((.def_6 (or .def_5 .def_4))) (let ((.def_7 (= parameter_load_at_depot_r@1 0.0))) (let ((.def_8 (<= fluent_battery_level_r0@1 100.0))) (let ((.def_9 (<= 0.0 fluent_battery_level_r0@1))) (let ((.def_10 (= parameter_load_at_depot_pos@1 2.0))) (let ((.def_11 (= parameter_load_at_depot_pos@1 1.0))) (let ((.def_12 (or .def_11 .def_10))) (let ((.def_13 (= parameter_move_r@1 0.0))) (let ((.def_14 (= parameter_move_frompos@1 2.0))) (let ((.def_15 (= parameter_move_frompos@1 1.0))) (let ((.def_16 (or .def_15 .def_14))) (let ((.def_17 (= parameter_move_topos@1 2.0))) (let ((.def_18 (= parameter_move_topos@1 1.0))) (let ((.def_19 (or .def_18 .def_17))) (let ((.def_20 (= parameter_make_treatment_pos@1 2.0))) (let ((.def_21 (= parameter_make_treatment_pos@1 1.0))) (let ((.def_22 (or .def_21 .def_20))) (let ((.def_23 (= parameter_make_treatment_r@1 0.0))) (let ((.def_24 (= parameter_make_treatment_pallet@1 4.0))) (let ((.def_25 (= parameter_make_treatment_pallet@1 3.0))) (let ((.def_26 (or .def_25 .def_24))) (let ((.def_27 (= parameter_make_treatment_t@1 7.0))) (let ((.def_28 (= parameter_make_treatment_t@1 6.0))) (let ((.def_29 (= parameter_make_treatment_t@1 5.0))) (let ((.def_30 (or .def_29 .def_28 .def_27))) (let ((.def_31 (= parameter_load_r@1 0.0))) (let ((.def_32 (= parameter_unload_at_depot_pallet@1 4.0))) (let ((.def_33 (= parameter_unload_at_depot_pallet@1 3.0))) (let ((.def_34 (or .def_33 .def_32))) (let ((.def_35 (= parameter_unload_at_depot_r@1 0.0))) (let ((.def_36 (= parameter_unload_at_depot_pos@1 2.0))) (let ((.def_37 (= parameter_unload_at_depot_pos@1 1.0))) (let ((.def_38 (or .def_37 .def_36))) (let ((.def_39 (= parameter_load_pallet@1 4.0))) (let ((.def_40 (= parameter_load_pallet@1 3.0))) (let ((.def_41 (or .def_40 .def_39))) (let ((.def_42 (= parameter_load_pos@1 2.0))) (let ((.def_43 (= parameter_load_pos@1 1.0))) (let ((.def_44 (or .def_43 .def_42))) (let ((.def_45 (and act_move@1 true .def_13))) (let ((.def_46 (= fluent_battery_level_r0@0 fluent_battery_level_r0@1))) (let ((.def_47 (not .def_46))) (let ((.def_48 (=> .def_47 .def_45))) (let ((.def_49 (and act_make_treatment@1 true .def_24 .def_20))) (let ((.def_50 (and act_unload_at_depot@1 true .def_32 .def_36))) (let ((.def_51 (and .def_50 .def_49))) (let ((.def_52 (not .def_51))) (let ((.def_53 (and act_load_at_depot@1 true .def_4 .def_10))) (let ((.def_54 (and .def_53 .def_49))) (let ((.def_55 (not .def_54))) (let ((.def_56 (and .def_53 .def_50))) (let ((.def_57 (not .def_56))) (let ((.def_58 (and act_load@1 true .def_39 .def_42))) (let ((.def_59 (and .def_58 .def_49))) (let ((.def_60 (not .def_59))) (let ((.def_61 (and .def_58 .def_50))) (let ((.def_62 (not .def_61))) (let ((.def_63 (and .def_58 .def_53))) (let ((.def_64 (not .def_63))) (let ((.def_65 (or .def_58 .def_53 .def_50 .def_49))) (let ((.def_66 (= fluent_pallet_at_plt1_p1@0 fluent_pallet_at_plt1_p1@1))) (let ((.def_67 (not .def_66))) (let ((.def_68 (=> .def_67 .def_65))) (let ((.def_69 (and act_make_treatment@1 true .def_25 .def_20))) (let ((.def_70 (and act_unload_at_depot@1 true .def_33 .def_36))) (let ((.def_71 (and .def_70 .def_69))) (let ((.def_72 (not .def_71))) (let ((.def_73 (and act_load_at_depot@1 true .def_5 .def_10))) (let ((.def_74 (and .def_73 .def_69))) (let ((.def_75 (not .def_74))) (let ((.def_76 (and .def_73 .def_70))) (let ((.def_77 (not .def_76))) (let ((.def_78 (and act_load@1 true .def_40 .def_42))) (let ((.def_79 (and .def_78 .def_69))) (let ((.def_80 (not .def_79))) (let ((.def_81 (and .def_78 .def_70))) (let ((.def_82 (not .def_81))) (let ((.def_83 (and .def_78 .def_73))) (let ((.def_84 (not .def_83))) (let ((.def_85 (or .def_78 .def_73 .def_70 .def_69))) (let ((.def_86 (= fluent_pallet_at_plt0_p1@0 fluent_pallet_at_plt0_p1@1))) (let ((.def_87 (not .def_86))) (let ((.def_88 (=> .def_87 .def_85))) (let ((.def_89 (and act_make_treatment@1 true .def_24 .def_21))) (let ((.def_90 (and act_unload_at_depot@1 true .def_32 .def_37))) (let ((.def_91 (and .def_90 .def_89))) (let ((.def_92 (not .def_91))) (let ((.def_93 (and act_load_at_depot@1 true .def_4 .def_11))) (let ((.def_94 (and .def_93 .def_89))) (let ((.def_95 (not .def_94))) (let ((.def_96 (and .def_93 .def_90))) (let ((.def_97 (not .def_96))) (let ((.def_98 (and act_load@1 true .def_39 .def_43))) (let ((.def_99 (and .def_98 .def_89))) (let ((.def_100 (not .def_99))) (let ((.def_101 (and .def_98 .def_90))) (let ((.def_102 (not .def_101))) (let ((.def_103 (and .def_98 .def_93))) (let ((.def_104 (not .def_103))) (let ((.def_105 (or .def_98 .def_93 .def_90 .def_89))) (let ((.def_106 (= fluent_pallet_at_plt1_p0@0 fluent_pallet_at_plt1_p0@1))) (let ((.def_107 (not .def_106))) (let ((.def_108 (=> .def_107 .def_105))) (let ((.def_109 (and act_make_treatment@1 true .def_25 .def_21))) (let ((.def_110 (and act_unload_at_depot@1 true .def_33 .def_37))) (let ((.def_111 (and .def_110 .def_109))) (let ((.def_112 (not .def_111))) (let ((.def_113 (and act_load_at_depot@1 true .def_5 .def_11))) (let ((.def_114 (and .def_113 .def_109))) (let ((.def_115 (not .def_114))) (let ((.def_116 (and .def_113 .def_110))) (let ((.def_117 (not .def_116))) (let ((.def_118 (and act_load@1 true .def_40 .def_43))) (let ((.def_119 (and .def_118 .def_109))) (let ((.def_120 (not .def_119))) (let ((.def_121 (and .def_118 .def_110))) (let ((.def_122 (not .def_121))) (let ((.def_123 (and .def_118 .def_113))) (let ((.def_124 (not .def_123))) (let ((.def_125 (or .def_118 .def_113 .def_110 .def_109))) (let ((.def_126 (= fluent_pallet_at_plt0_p0@0 fluent_pallet_at_plt0_p0@1))) (let ((.def_127 (not .def_126))) (let ((.def_128 (=> .def_127 .def_125))) (let ((.def_129 (and act_load@1 true .def_39 .def_0))) (let ((.def_130 (= fluent_treated_plt1_t2@0 fluent_treated_plt1_t2@1))) (let ((.def_131 (not .def_130))) (let ((.def_132 (=> .def_131 .def_129))) (let ((.def_133 (and act_load@1 true .def_40 .def_0))) (let ((.def_134 (= fluent_treated_plt0_t2@0 fluent_treated_plt0_t2@1))) (let ((.def_135 (not .def_134))) (let ((.def_136 (=> .def_135 .def_133))) (let ((.def_137 (and act_load@1 true .def_39 .def_1))) (let ((.def_138 (= fluent_treated_plt1_t1@0 fluent_treated_plt1_t1@1))) (let ((.def_139 (not .def_138))) (let ((.def_140 (=> .def_139 .def_137))) (let ((.def_141 (and act_load@1 true .def_40 .def_1))) (let ((.def_142 (= fluent_treated_plt0_t1@0 fluent_treated_plt0_t1@1))) (let ((.def_143 (not .def_142))) (let ((.def_144 (=> .def_143 .def_141))) (let ((.def_145 (and act_load@1 true .def_39 .def_2))) (let ((.def_146 (= fluent_treated_plt1_t0@0 fluent_treated_plt1_t0@1))) (let ((.def_147 (not .def_146))) (let ((.def_148 (=> .def_147 .def_145))) (let ((.def_149 (and act_load@1 true .def_40 .def_2))) (let ((.def_150 (= fluent_treated_plt0_t0@0 fluent_treated_plt0_t0@1))) (let ((.def_151 (not .def_150))) (let ((.def_152 (=> .def_151 .def_149))) (let ((.def_153 (and act_make_treatment@1 true .def_20))) (let ((.def_154 (and act_load@1 true .def_42))) (let ((.def_155 (and .def_154 .def_153))) (let ((.def_156 (not .def_155))) (let ((.def_157 (or .def_154 .def_153))) (let ((.def_158 (= fluent_position_free_p1@0 fluent_position_free_p1@1))) (let ((.def_159 (not .def_158))) (let ((.def_160 (=> .def_159 .def_157))) (let ((.def_161 (and act_make_treatment@1 true .def_21))) (let ((.def_162 (and act_load@1 true .def_43))) (let ((.def_163 (and .def_162 .def_161))) (let ((.def_164 (not .def_163))) (let ((.def_165 (or .def_162 .def_161))) (let ((.def_166 (= fluent_position_free_p0@0 fluent_position_free_p0@1))) (let ((.def_167 (not .def_166))) (let ((.def_168 (=> .def_167 .def_165))) (let ((.def_169 (+ t@1 10.0))) (let ((.def_170 (= t@1 .def_169))) (let ((.def_171 (and act_make_treatment@1 true .def_170 .def_24 .def_20 .def_27))) (let ((.def_172 (and act_load@1 true .def_39 .def_42 .def_0))) (let ((.def_173 (and .def_172 .def_171))) (let ((.def_174 (not .def_173))) (let ((.def_175 (or .def_172 .def_171))) (let ((.def_176 (= fluent_ready_plt1_p1_t2@0 fluent_ready_plt1_p1_t2@1))) (let ((.def_177 (not .def_176))) (let ((.def_178 (=> .def_177 .def_175))) (let ((.def_179 (and act_make_treatment@1 true .def_170 .def_25 .def_20 .def_27))) (let ((.def_180 (and act_load@1 true .def_40 .def_42 .def_0))) (let ((.def_181 (and .def_180 .def_179))) (let ((.def_182 (not .def_181))) (let ((.def_183 (or .def_180 .def_179))) (let ((.def_184 (= fluent_ready_plt0_p1_t2@0 fluent_ready_plt0_p1_t2@1))) (let ((.def_185 (not .def_184))) (let ((.def_186 (=> .def_185 .def_183))) (let ((.def_187 (and act_make_treatment@1 true .def_170 .def_24 .def_21 .def_27))) (let ((.def_188 (and act_load@1 true .def_39 .def_43 .def_0))) (let ((.def_189 (and .def_188 .def_187))) (let ((.def_190 (not .def_189))) (let ((.def_191 (or .def_188 .def_187))) (let ((.def_192 (= fluent_ready_plt1_p0_t2@0 fluent_ready_plt1_p0_t2@1))) (let ((.def_193 (not .def_192))) (let ((.def_194 (=> .def_193 .def_191))) (let ((.def_195 (and act_make_treatment@1 true .def_170 .def_25 .def_21 .def_27))) (let ((.def_196 (and act_load@1 true .def_40 .def_43 .def_0))) (let ((.def_197 (and .def_196 .def_195))) (let ((.def_198 (not .def_197))) (let ((.def_199 (or .def_196 .def_195))) (let ((.def_200 (= fluent_ready_plt0_p0_t2@0 fluent_ready_plt0_p0_t2@1))) (let ((.def_201 (not .def_200))) (let ((.def_202 (=> .def_201 .def_199))) (let ((.def_203 (and act_make_treatment@1 true .def_170 .def_24 .def_20 .def_28))) (let ((.def_204 (and act_load@1 true .def_39 .def_42 .def_1))) (let ((.def_205 (and .def_204 .def_203))) (let ((.def_206 (not .def_205))) (let ((.def_207 (or .def_204 .def_203))) (let ((.def_208 (= fluent_ready_plt1_p1_t1@0 fluent_ready_plt1_p1_t1@1))) (let ((.def_209 (not .def_208))) (let ((.def_210 (=> .def_209 .def_207))) (let ((.def_211 (and act_make_treatment@1 true .def_170 .def_25 .def_20 .def_28))) (let ((.def_212 (and act_load@1 true .def_40 .def_42 .def_1))) (let ((.def_213 (and .def_212 .def_211))) (let ((.def_214 (not .def_213))) (let ((.def_215 (or .def_212 .def_211))) (let ((.def_216 (= fluent_ready_plt0_p1_t1@0 fluent_ready_plt0_p1_t1@1))) (let ((.def_217 (not .def_216))) (let ((.def_218 (=> .def_217 .def_215))) (let ((.def_219 (and act_make_treatment@1 true .def_170 .def_24 .def_21 .def_28))) (let ((.def_220 (and act_load@1 true .def_39 .def_43 .def_1))) (let ((.def_221 (and .def_220 .def_219))) (let ((.def_222 (not .def_221))) (let ((.def_223 (or .def_220 .def_219))) (let ((.def_224 (= fluent_ready_plt1_p0_t1@0 fluent_ready_plt1_p0_t1@1))) (let ((.def_225 (not .def_224))) (let ((.def_226 (=> .def_225 .def_223))) (let ((.def_227 (and act_make_treatment@1 true .def_170 .def_25 .def_21 .def_28))) (let ((.def_228 (and act_load@1 true .def_40 .def_43 .def_1))) (let ((.def_229 (and .def_228 .def_227))) (let ((.def_230 (not .def_229))) (let ((.def_231 (or .def_228 .def_227))) (let ((.def_232 (= fluent_ready_plt0_p0_t1@0 fluent_ready_plt0_p0_t1@1))) (let ((.def_233 (not .def_232))) (let ((.def_234 (=> .def_233 .def_231))) (let ((.def_235 (and act_make_treatment@1 true .def_170 .def_24 .def_20 .def_29))) (let ((.def_236 (and act_load@1 true .def_39 .def_42 .def_2))) (let ((.def_237 (and .def_236 .def_235))) (let ((.def_238 (not .def_237))) (let ((.def_239 (or .def_236 .def_235))) (let ((.def_240 (= fluent_ready_plt1_p1_t0@0 fluent_ready_plt1_p1_t0@1))) (let ((.def_241 (not .def_240))) (let ((.def_242 (=> .def_241 .def_239))) (let ((.def_243 (and act_make_treatment@1 true .def_170 .def_25 .def_20 .def_29))) (let ((.def_244 (and act_load@1 true .def_40 .def_42 .def_2))) (let ((.def_245 (and .def_244 .def_243))) (let ((.def_246 (not .def_245))) (let ((.def_247 (or .def_244 .def_243))) (let ((.def_248 (= fluent_ready_plt0_p1_t0@0 fluent_ready_plt0_p1_t0@1))) (let ((.def_249 (not .def_248))) (let ((.def_250 (=> .def_249 .def_247))) (let ((.def_251 (and act_make_treatment@1 true .def_170 .def_24 .def_21 .def_29))) (let ((.def_252 (and act_load@1 true .def_39 .def_43 .def_2))) (let ((.def_253 (and .def_252 .def_251))) (let ((.def_254 (not .def_253))) (let ((.def_255 (or .def_252 .def_251))) (let ((.def_256 (= fluent_ready_plt1_p0_t0@0 fluent_ready_plt1_p0_t0@1))) (let ((.def_257 (not .def_256))) (let ((.def_258 (=> .def_257 .def_255))) (let ((.def_259 (and act_make_treatment@1 true .def_170 .def_25 .def_21 .def_29))) (let ((.def_260 (and act_load@1 true .def_40 .def_43 .def_2))) (let ((.def_261 (and .def_260 .def_259))) (let ((.def_262 (not .def_261))) (let ((.def_263 (or .def_260 .def_259))) (let ((.def_264 (= fluent_ready_plt0_p0_t0@0 fluent_ready_plt0_p0_t0@1))) (let ((.def_265 (not .def_264))) (let ((.def_266 (=> .def_265 .def_263))) (let ((.def_267 (and act_make_treatment@1 true .def_23 .def_24))) (let ((.def_268 (and act_unload_at_depot@1 true .def_35 .def_32))) (let ((.def_269 (and .def_268 .def_267))) (let ((.def_270 (not .def_269))) (let ((.def_271 (and act_load_at_depot@1 true .def_7 .def_4))) (let ((.def_272 (and .def_271 .def_267))) (let ((.def_273 (not .def_272))) (let ((.def_274 (and .def_271 .def_268))) (let ((.def_275 (not .def_274))) (let ((.def_276 (and act_load@1 true .def_31 .def_39))) (let ((.def_277 (and .def_276 .def_267))) (let ((.def_278 (not .def_277))) (let ((.def_279 (and .def_276 .def_268))) (let ((.def_280 (not .def_279))) (let ((.def_281 (and .def_276 .def_271))) (let ((.def_282 (not .def_281))) (let ((.def_283 (or .def_276 .def_271 .def_268 .def_267))) (let ((.def_284 (= fluent_robot_has_r0_plt1@0 fluent_robot_has_r0_plt1@1))) (let ((.def_285 (not .def_284))) (let ((.def_286 (=> .def_285 .def_283))) (let ((.def_287 (and act_make_treatment@1 true .def_23 .def_25))) (let ((.def_288 (and act_unload_at_depot@1 true .def_35 .def_33))) (let ((.def_289 (and .def_288 .def_287))) (let ((.def_290 (not .def_289))) (let ((.def_291 (and act_load_at_depot@1 true .def_7 .def_5))) (let ((.def_292 (and .def_291 .def_287))) (let ((.def_293 (not .def_292))) (let ((.def_294 (and .def_291 .def_288))) (let ((.def_295 (not .def_294))) (let ((.def_296 (and act_load@1 true .def_31 .def_40))) (let ((.def_297 (and .def_296 .def_287))) (let ((.def_298 (not .def_297))) (let ((.def_299 (and .def_296 .def_288))) (let ((.def_300 (not .def_299))) (let ((.def_301 (and .def_296 .def_291))) (let ((.def_302 (not .def_301))) (let ((.def_303 (or .def_296 .def_291 .def_288 .def_287))) (let ((.def_304 (= fluent_robot_has_r0_plt0@0 fluent_robot_has_r0_plt0@1))) (let ((.def_305 (not .def_304))) (let ((.def_306 (=> .def_305 .def_303))) (let ((.def_307 (and act_make_treatment@1 true .def_23))) (let ((.def_308 (and act_unload_at_depot@1 true .def_35))) (let ((.def_309 (and .def_308 .def_307))) (let ((.def_310 (not .def_309))) (let ((.def_311 (and act_load_at_depot@1 true .def_7))) (let ((.def_312 (and .def_311 .def_307))) (let ((.def_313 (not .def_312))) (let ((.def_314 (and .def_311 .def_308))) (let ((.def_315 (not .def_314))) (let ((.def_316 (and act_load@1 true .def_31))) (let ((.def_317 (and .def_316 .def_307))) (let ((.def_318 (not .def_317))) (let ((.def_319 (and .def_316 .def_308))) (let ((.def_320 (not .def_319))) (let ((.def_321 (and .def_316 .def_311))) (let ((.def_322 (not .def_321))) (let ((.def_323 (or .def_316 .def_311 .def_308 .def_307))) (let ((.def_324 (= fluent_robot_free_r0@0 fluent_robot_free_r0@1))) (let ((.def_325 (not .def_324))) (let ((.def_326 (=> .def_325 .def_323))) (let ((.def_327 (and act_move@1 true .def_13 .def_14))) (let ((.def_328 (and act_move@1 true .def_13 .def_17))) (let ((.def_329 (and .def_328 .def_327))) (let ((.def_330 (not .def_329))) (let ((.def_331 (or .def_328 .def_327))) (let ((.def_332 (= fluent_robot_at_r0_p1@0 fluent_robot_at_r0_p1@1))) (let ((.def_333 (not .def_332))) (let ((.def_334 (=> .def_333 .def_331))) (let ((.def_335 (and act_move@1 true .def_13 .def_15))) (let ((.def_336 (and act_move@1 true .def_13 .def_18))) (let ((.def_337 (and .def_336 .def_335))) (let ((.def_338 (not .def_337))) (let ((.def_339 (or .def_336 .def_335))) (let ((.def_340 (= fluent_robot_at_r0_p0@0 fluent_robot_at_r0_p0@1))) (let ((.def_341 (not .def_340))) (let ((.def_342 (=> .def_341 .def_339))) (let ((.def_343 (and .def_342 .def_338 .def_334 .def_330 .def_326 .def_322 .def_320 .def_318 .def_315 .def_313 .def_310 .def_306 .def_302 .def_300 .def_298 .def_295 .def_293 .def_290 .def_286 .def_282 .def_280 .def_278 .def_275 .def_273 .def_270 .def_266 .def_262 .def_258 .def_254 .def_250 .def_246 .def_242 .def_238 .def_234 .def_230 .def_226 .def_222 .def_218 .def_214 .def_210 .def_206 .def_202 .def_198 .def_194 .def_190 .def_186 .def_182 .def_178 .def_174 .def_168 .def_164 .def_160 .def_156 .def_152 .def_148 .def_144 .def_140 .def_136 .def_132 .def_128 .def_124 .def_122 .def_120 .def_117 .def_115 .def_112 .def_108 .def_104 .def_102 .def_100 .def_97 .def_95 .def_92 .def_88 .def_84 .def_82 .def_80 .def_77 .def_75 .def_72 .def_68 .def_64 .def_62 .def_60 .def_57 .def_55 .def_52 .def_48))) (let ((.def_344 (= t@1 t@1))) (let ((.def_345 (and act_load@1 act_make_treatment@1 .def_344))) (let ((.def_346 (not .def_345))) (let ((.def_347 (and act_load@1 act_move@1 .def_344))) (let ((.def_348 (not .def_347))) (let ((.def_349 (and act_make_treatment@1 act_unload_at_depot@1 .def_344))) (let ((.def_350 (not .def_349))) (let ((.def_351 (and act_make_treatment@1 act_load_at_depot@1 .def_344))) (let ((.def_352 (not .def_351))) (let ((.def_353 (and act_unload_at_depot@1 act_load_at_depot@1 .def_344))) (let ((.def_354 (not .def_353))) (let ((.def_355 (and act_load_at_depot@1 act_move@1 .def_344))) (let ((.def_356 (not .def_355))) (let ((.def_357 (and act_make_treatment@1 act_move@1 .def_344))) (let ((.def_358 (not .def_357))) (let ((.def_359 (and act_load@1 act_unload_at_depot@1 .def_344))) (let ((.def_360 (not .def_359))) (let ((.def_361 (and act_load@1 act_load_at_depot@1 .def_344))) (let ((.def_362 (not .def_361))) (let ((.def_363 (and act_unload_at_depot@1 act_move@1 .def_344))) (let ((.def_364 (not .def_363))) (let ((.def_365 (+ t@1 dur_make_treatment@1))) (let ((.def_366 (= t@1 .def_365))) (let ((.def_367 (and act_load@1 act_make_treatment@1 .def_366))) (let ((.def_368 (not .def_367))) (let ((.def_369 (and act_load@1 act_make_treatment@1 .def_170))) (let ((.def_370 (not .def_369))) (let ((.def_371 (and .def_370 .def_368 .def_364 .def_362 .def_360 .def_358 .def_356 .def_354 .def_352 .def_350 .def_348 .def_346))) (let ((.def_372 (<= 0.0 t@1))) (let ((.def_373 (and .def_24 .def_21 .def_29))) (let ((.def_374 (ite .def_373 fluent_ready_plt1_p0_t0@1 fluent_ready_plt0_p0_t0@1))) (let ((.def_375 (and .def_25 .def_20 .def_29))) (let ((.def_376 (ite .def_375 fluent_ready_plt0_p1_t0@1 .def_374))) (let ((.def_377 (and .def_24 .def_20 .def_29))) (let ((.def_378 (ite .def_377 fluent_ready_plt1_p1_t0@1 .def_376))) (let ((.def_379 (and .def_25 .def_21 .def_28))) (let ((.def_380 (ite .def_379 fluent_ready_plt0_p0_t1@1 .def_378))) (let ((.def_381 (and .def_24 .def_21 .def_28))) (let ((.def_382 (ite .def_381 fluent_ready_plt1_p0_t1@1 .def_380))) (let ((.def_383 (and .def_25 .def_20 .def_28))) (let ((.def_384 (ite .def_383 fluent_ready_plt0_p1_t1@1 .def_382))) (let ((.def_385 (and .def_24 .def_20 .def_28))) (let ((.def_386 (ite .def_385 fluent_ready_plt1_p1_t1@1 .def_384))) (let ((.def_387 (and .def_25 .def_21 .def_27))) (let ((.def_388 (ite .def_387 fluent_ready_plt0_p0_t2@1 .def_386))) (let ((.def_389 (and .def_24 .def_21 .def_27))) (let ((.def_390 (ite .def_389 fluent_ready_plt1_p0_t2@1 .def_388))) (let ((.def_391 (and .def_25 .def_20 .def_27))) (let ((.def_392 (ite .def_391 fluent_ready_plt0_p1_t2@1 .def_390))) (let ((.def_393 (and .def_24 .def_20 .def_27))) (let ((.def_394 (ite .def_393 fluent_ready_plt1_p1_t2@1 .def_392))) (let ((.def_395 (= .def_394 true))) (let ((.def_396 (=> true .def_395))) (let ((.def_397 (and .def_170 .def_396))) (let ((.def_398 (= fluent_robot_free_r0@1 true))) (let ((.def_399 (=> true .def_398))) (let ((.def_400 (and .def_24 .def_21))) (let ((.def_401 (ite .def_400 fluent_pallet_at_plt1_p0@1 fluent_pallet_at_plt0_p0@1))) (let ((.def_402 (and .def_25 .def_20))) (let ((.def_403 (ite .def_402 fluent_pallet_at_plt0_p1@1 .def_401))) (let ((.def_404 (and .def_24 .def_20))) (let ((.def_405 (ite .def_404 fluent_pallet_at_plt1_p1@1 .def_403))) (let ((.def_406 (= .def_405 true))) (let ((.def_407 (=> true .def_406))) (let ((.def_408 (and .def_23 .def_24))) (let ((.def_409 (ite .def_408 fluent_robot_has_r0_plt1@1 fluent_robot_has_r0_plt0@1))) (let ((.def_410 (= .def_409 false))) (let ((.def_411 (=> true .def_410))) (let ((.def_412 (ite .def_20 fluent_position_free_p1@1 fluent_position_free_p0@1))) (let ((.def_413 (= .def_412 false))) (let ((.def_414 (=> true .def_413))) (let ((.def_415 (and .def_344 .def_414 .def_411 .def_407 .def_399))) (let ((.def_416 (ite .def_20 fluent_position_free_p1@0 fluent_position_free_p0@0))) (let ((.def_417 (and .def_24 .def_29))) (let ((.def_418 (ite .def_417 fluent_treated_plt1_t0@0 fluent_treated_plt0_t0@0))) (let ((.def_419 (and .def_25 .def_28))) (let ((.def_420 (ite .def_419 fluent_treated_plt0_t1@0 .def_418))) (let ((.def_421 (and .def_24 .def_28))) (let ((.def_422 (ite .def_421 fluent_treated_plt1_t1@0 .def_420))) (let ((.def_423 (and .def_25 .def_27))) (let ((.def_424 (ite .def_423 fluent_treated_plt0_t2@0 .def_422))) (let ((.def_425 (and .def_24 .def_27))) (let ((.def_426 (ite .def_425 fluent_treated_plt1_t2@0 .def_424))) (let ((.def_427 (and .def_426 .def_416))) (let ((.def_428 (<= .def_365 t@1))) (let ((.def_429 (< (- 1.0) .def_365))) (let ((.def_430 (and .def_429 .def_428))) (let ((.def_431 (=> .def_430 .def_427))) (let ((.def_432 (not .def_426))) (let ((.def_433 (ite .def_408 fluent_robot_has_r0_plt1@0 fluent_robot_has_r0_plt0@0))) (let ((.def_434 (and .def_23 .def_20))) (let ((.def_435 (ite .def_434 fluent_robot_at_r0_p1@0 fluent_robot_at_r0_p0@0))) (let ((.def_436 (and .def_20 .def_29))) (let ((.def_437 (ite .def_436 false true))) (let ((.def_438 (and .def_21 .def_28))) (let ((.def_439 (ite .def_438 true .def_437))) (let ((.def_440 (and .def_20 .def_28))) (let ((.def_441 (ite .def_440 false .def_439))) (let ((.def_442 (and .def_21 .def_27))) (let ((.def_443 (ite .def_442 true .def_441))) (let ((.def_444 (and .def_20 .def_27))) (let ((.def_445 (ite .def_444 false .def_443))) (let ((.def_446 (and .def_445 .def_416 .def_435 .def_433 .def_432))) (let ((.def_447 (<= t@1 t@1))) (let ((.def_448 (< (- 1.0) t@1))) (let ((.def_449 (and .def_448 .def_447))) (let ((.def_450 (=> .def_449 .def_446))) (let ((.def_451 (<= dur_make_treatment@1 20.0))) (let ((.def_452 (<= 20.0 dur_make_treatment@1))) (let ((.def_453 (and .def_452 .def_451))) (let ((.def_454 (and .def_453 .def_428 .def_450 .def_431 .def_415 .def_397))) (let ((.def_455 (=> act_make_treatment@1 .def_454))) (let ((.def_456 (and .def_35 .def_32))) (let ((.def_457 (ite .def_456 fluent_robot_has_r0_plt1@1 fluent_robot_has_r0_plt0@1))) (let ((.def_458 (= .def_457 false))) (let ((.def_459 (=> true .def_458))) (let ((.def_460 (and .def_32 .def_37))) (let ((.def_461 (ite .def_460 fluent_pallet_at_plt1_p0@1 fluent_pallet_at_plt0_p0@1))) (let ((.def_462 (and .def_33 .def_36))) (let ((.def_463 (ite .def_462 fluent_pallet_at_plt0_p1@1 .def_461))) (let ((.def_464 (and .def_32 .def_36))) (let ((.def_465 (ite .def_464 fluent_pallet_at_plt1_p1@1 .def_463))) (let ((.def_466 (= .def_465 true))) (let ((.def_467 (=> true .def_466))) (let ((.def_468 (ite .def_456 fluent_robot_has_r0_plt1@0 fluent_robot_has_r0_plt0@0))) (let ((.def_469 (and .def_35 .def_36))) (let ((.def_470 (ite .def_469 fluent_robot_at_r0_p1@0 fluent_robot_at_r0_p0@0))) (let ((.def_471 (ite .def_36 true false))) (let ((.def_472 (and .def_471 .def_470 .def_468 .def_467 .def_399 .def_459))) (let ((.def_473 (=> act_unload_at_depot@1 .def_472))) (let ((.def_474 (and .def_4 .def_11))) (let ((.def_475 (ite .def_474 fluent_pallet_at_plt1_p0@1 fluent_pallet_at_plt0_p0@1))) (let ((.def_476 (and .def_5 .def_10))) (let ((.def_477 (ite .def_476 fluent_pallet_at_plt0_p1@1 .def_475))) (let ((.def_478 (and .def_4 .def_10))) (let ((.def_479 (ite .def_478 fluent_pallet_at_plt1_p1@1 .def_477))) (let ((.def_480 (= .def_479 false))) (let ((.def_481 (=> true .def_480))) (let ((.def_482 (and .def_7 .def_4))) (let ((.def_483 (ite .def_482 fluent_robot_has_r0_plt1@1 fluent_robot_has_r0_plt0@1))) (let ((.def_484 (= .def_483 true))) (let ((.def_485 (=> true .def_484))) (let ((.def_486 (= fluent_robot_free_r0@1 false))) (let ((.def_487 (=> true .def_486))) (let ((.def_488 (ite .def_474 fluent_pallet_at_plt1_p0@0 fluent_pallet_at_plt0_p0@0))) (let ((.def_489 (ite .def_476 fluent_pallet_at_plt0_p1@0 .def_488))) (let ((.def_490 (ite .def_478 fluent_pallet_at_plt1_p1@0 .def_489))) (let ((.def_491 (and .def_7 .def_10))) (let ((.def_492 (ite .def_491 fluent_robot_at_r0_p1@0 fluent_robot_at_r0_p0@0))) (let ((.def_493 (ite .def_10 true false))) (let ((.def_494 (and .def_493 .def_492 fluent_robot_free_r0@0 .def_490 .def_487 .def_485 .def_481))) (let ((.def_495 (=> act_load_at_depot@1 .def_494))) (let ((.def_496 (ite .def_42 fluent_position_free_p1@1 fluent_position_free_p0@1))) (let ((.def_497 (= .def_496 true))) (let ((.def_498 (=> true .def_497))) (let ((.def_499 (and .def_39 .def_2))) (let ((.def_500 (ite .def_499 fluent_treated_plt1_t0@1 fluent_treated_plt0_t0@1))) (let ((.def_501 (and .def_40 .def_1))) (let ((.def_502 (ite .def_501 fluent_treated_plt0_t1@1 .def_500))) (let ((.def_503 (and .def_39 .def_1))) (let ((.def_504 (ite .def_503 fluent_treated_plt1_t1@1 .def_502))) (let ((.def_505 (and .def_40 .def_0))) (let ((.def_506 (ite .def_505 fluent_treated_plt0_t2@1 .def_504))) (let ((.def_507 (and .def_39 .def_0))) (let ((.def_508 (ite .def_507 fluent_treated_plt1_t2@1 .def_506))) (let ((.def_509 (= .def_508 true))) (let ((.def_510 (=> true .def_509))) (let ((.def_511 (and .def_31 .def_39))) (let ((.def_512 (ite .def_511 fluent_robot_has_r0_plt1@1 fluent_robot_has_r0_plt0@1))) (let ((.def_513 (= .def_512 true))) (let ((.def_514 (=> true .def_513))) (let ((.def_515 (and .def_39 .def_43))) (let ((.def_516 (ite .def_515 fluent_pallet_at_plt1_p0@1 fluent_pallet_at_plt0_p0@1))) (let ((.def_517 (and .def_40 .def_42))) (let ((.def_518 (ite .def_517 fluent_pallet_at_plt0_p1@1 .def_516))) (let ((.def_519 (and .def_39 .def_42))) (let ((.def_520 (ite .def_519 fluent_pallet_at_plt1_p1@1 .def_518))) (let ((.def_521 (= .def_520 false))) (let ((.def_522 (=> true .def_521))) (let ((.def_523 (and .def_39 .def_43 .def_2))) (let ((.def_524 (ite .def_523 fluent_ready_plt1_p0_t0@1 fluent_ready_plt0_p0_t0@1))) (let ((.def_525 (and .def_40 .def_42 .def_2))) (let ((.def_526 (ite .def_525 fluent_ready_plt0_p1_t0@1 .def_524))) (let ((.def_527 (and .def_39 .def_42 .def_2))) (let ((.def_528 (ite .def_527 fluent_ready_plt1_p1_t0@1 .def_526))) (let ((.def_529 (and .def_40 .def_43 .def_1))) (let ((.def_530 (ite .def_529 fluent_ready_plt0_p0_t1@1 .def_528))) (let ((.def_531 (and .def_39 .def_43 .def_1))) (let ((.def_532 (ite .def_531 fluent_ready_plt1_p0_t1@1 .def_530))) (let ((.def_533 (and .def_40 .def_42 .def_1))) (let ((.def_534 (ite .def_533 fluent_ready_plt0_p1_t1@1 .def_532))) (let ((.def_535 (and .def_39 .def_42 .def_1))) (let ((.def_536 (ite .def_535 fluent_ready_plt1_p1_t1@1 .def_534))) (let ((.def_537 (and .def_40 .def_43 .def_0))) (let ((.def_538 (ite .def_537 fluent_ready_plt0_p0_t2@1 .def_536))) (let ((.def_539 (and .def_39 .def_43 .def_0))) (let ((.def_540 (ite .def_539 fluent_ready_plt1_p0_t2@1 .def_538))) (let ((.def_541 (and .def_40 .def_42 .def_0))) (let ((.def_542 (ite .def_541 fluent_ready_plt0_p1_t2@1 .def_540))) (let ((.def_543 (and .def_39 .def_42 .def_0))) (let ((.def_544 (ite .def_543 fluent_ready_plt1_p1_t2@1 .def_542))) (let ((.def_545 (= .def_544 false))) (let ((.def_546 (=> true .def_545))) (let ((.def_547 (ite .def_515 fluent_pallet_at_plt1_p0@0 fluent_pallet_at_plt0_p0@0))) (let ((.def_548 (ite .def_517 fluent_pallet_at_plt0_p1@0 .def_547))) (let ((.def_549 (ite .def_519 fluent_pallet_at_plt1_p1@0 .def_548))) (let ((.def_550 (and .def_31 .def_42))) (let ((.def_551 (ite .def_550 fluent_robot_at_r0_p1@0 fluent_robot_at_r0_p0@0))) (let ((.def_552 (ite .def_523 fluent_ready_plt1_p0_t0@0 fluent_ready_plt0_p0_t0@0))) (let ((.def_553 (ite .def_525 fluent_ready_plt0_p1_t0@0 .def_552))) (let ((.def_554 (ite .def_527 fluent_ready_plt1_p1_t0@0 .def_553))) (let ((.def_555 (ite .def_529 fluent_ready_plt0_p0_t1@0 .def_554))) (let ((.def_556 (ite .def_531 fluent_ready_plt1_p0_t1@0 .def_555))) (let ((.def_557 (ite .def_533 fluent_ready_plt0_p1_t1@0 .def_556))) (let ((.def_558 (ite .def_535 fluent_ready_plt1_p1_t1@0 .def_557))) (let ((.def_559 (ite .def_537 fluent_ready_plt0_p0_t2@0 .def_558))) (let ((.def_560 (ite .def_539 fluent_ready_plt1_p0_t2@0 .def_559))) (let ((.def_561 (ite .def_541 fluent_ready_plt0_p1_t2@0 .def_560))) (let ((.def_562 (ite .def_543 fluent_ready_plt1_p1_t2@0 .def_561))) (let ((.def_563 (and .def_562 .def_551 fluent_robot_free_r0@0 .def_549 .def_487 .def_546 .def_522 .def_514 .def_510 .def_498))) (let ((.def_564 (=> act_load@1 .def_563))) (let ((.def_565 (and .def_14 .def_18))) (let ((.def_566 (ite .def_565 1.0 0.0))) (let ((.def_567 (and .def_15 .def_17))) (let ((.def_568 (ite .def_567 1.0 .def_566))) (let ((.def_569 (and .def_14 .def_17))) (let ((.def_570 (ite .def_569 0.0 .def_568))) (let ((.def_571 (- fluent_battery_level_r0@0 .def_570))) (let ((.def_572 (= fluent_battery_level_r0@1 .def_571))) (let ((.def_573 (=> true .def_572))) (let ((.def_574 (and .def_13 .def_14))) (let ((.def_575 (ite .def_574 fluent_robot_at_r0_p1@1 fluent_robot_at_r0_p0@1))) (let ((.def_576 (= .def_575 false))) (let ((.def_577 (=> true .def_576))) (let ((.def_578 (and .def_13 .def_17))) (let ((.def_579 (ite .def_578 fluent_robot_at_r0_p1@1 fluent_robot_at_r0_p0@1))) (let ((.def_580 (= .def_579 true))) (let ((.def_581 (=> true .def_580))) (let ((.def_582 (<= .def_570 fluent_battery_level_r0@0))) (let ((.def_583 (ite .def_574 fluent_robot_at_r0_p1@0 fluent_robot_at_r0_p0@0))) (let ((.def_584 (= parameter_move_frompos@1 parameter_move_topos@1))) (let ((.def_585 (not .def_584))) (let ((.def_586 (and .def_585 .def_583 .def_582 .def_581 .def_577 .def_573))) (let ((.def_587 (=> act_move@1 .def_586))) (let ((.def_588 (<= fluent_battery_level_r0@0 100.0))) (let ((.def_589 (<= 0.0 fluent_battery_level_r0@0))) (let ((.def_590 (= false false))) (let ((.def_591 (= fluent_pallet_at_plt1_p0@0 false))) (let ((.def_592 (= fluent_pallet_at_plt0_p0@0 false))) (let ((.def_593 (= fluent_treated_plt1_t2@0 false))) (let ((.def_594 (= fluent_treated_plt0_t2@0 false))) (let ((.def_595 (= fluent_treated_plt1_t1@0 false))) (let ((.def_596 (= fluent_treated_plt0_t1@0 false))) (let ((.def_597 (= fluent_treated_plt1_t0@0 false))) (let ((.def_598 (= fluent_treated_plt0_t0@0 false))) (let ((.def_599 (= fluent_ready_plt1_p1_t2@0 false))) (let ((.def_600 (= fluent_ready_plt0_p1_t2@0 false))) (let ((.def_601 (= fluent_ready_plt1_p0_t2@0 false))) (let ((.def_602 (= fluent_ready_plt0_p0_t2@0 false))) (let ((.def_603 (= fluent_ready_plt1_p1_t1@0 false))) (let ((.def_604 (= fluent_ready_plt0_p1_t1@0 false))) (let ((.def_605 (= fluent_ready_plt1_p0_t1@0 false))) (let ((.def_606 (= fluent_ready_plt0_p0_t1@0 false))) (let ((.def_607 (= fluent_ready_plt1_p1_t0@0 false))) (let ((.def_608 (= fluent_ready_plt0_p1_t0@0 false))) (let ((.def_609 (= fluent_ready_plt1_p0_t0@0 false))) (let ((.def_610 (= fluent_ready_plt0_p0_t0@0 false))) (let ((.def_611 (= fluent_robot_has_r0_plt1@0 false))) (let ((.def_612 (= fluent_robot_has_r0_plt0@0 false))) (let ((.def_613 (= fluent_robot_at_r0_p0@0 false))) (let ((.def_614 (= true true))) (let ((.def_615 (= fluent_position_free_p1@0 true))) (let ((.def_616 (= fluent_position_free_p0@0 true))) (let ((.def_617 (= 0.0 0.0))) (let ((.def_618 (= 1.0 1.0))) (let ((.def_619 (= fluent_battery_level_r0@0 8.0))) (let ((.def_620 (= fluent_pallet_at_plt1_p1@0 true))) (let ((.def_621 (= fluent_pallet_at_plt0_p1@0 true))) (let ((.def_622 (= fluent_robot_free_r0@0 true))) (let ((.def_623 (= fluent_robot_at_r0_p1@0 true))) (let ((.def_624 (and .def_623 .def_622 .def_621 .def_620 .def_619 .def_617 .def_618 .def_618 .def_617 .def_614 .def_616 .def_615 .def_614 .def_614 .def_614 .def_613 .def_612 .def_611 .def_610 .def_609 .def_608 .def_607 .def_606 .def_605 .def_604 .def_603 .def_602 .def_601 .def_600 .def_599 .def_598 .def_597 .def_596 .def_595 .def_594 .def_593 .def_592 .def_591 .def_590 .def_590 .def_590 .def_590 .def_589 .def_588))) (let ((.def_625 (and .def_624 .def_587 .def_564 .def_495 .def_473 .def_455 .def_372 .def_371 true .def_343 .def_44 .def_41 .def_38 .def_35 .def_34 .def_31 .def_30 .def_26 .def_23 .def_22 .def_19 .def_16 .def_13 .def_12 .def_9 .def_8 .def_7 .def_6 .def_3 true))) .def_625)))))))))))))))))))))))))))))))))))))))))))))))))))))))))))))))))))))))))))))))))))))))))))))))))))))))))))))))))))))))))))))))))))))))))))))))))))))))))))))))))))))))))))))))))))))))))))))))))))))))))))))))))))))))))))))))))))))))))))))))))))))))))))))))))))))))))))))))))))))))))))))))))))))))))))))))))))))))))))))))))))))))))))))))))))))))))))))))))))))))))))))))))))))))))))))))))))))))))))))))))))))))))))))))))))))))))))))))))))))))))))))))))))))))))))))))))))))))))))))))))))))))))))))))))))))))))))))))))))))))))))))))))))))))))))))))))))))))))))))))))))))))))))))))))))))))))))))))))))))))))))))))))))))))))))))))))))
(check-sat)

--------------------------------------------------------------------------------
